
Gurobi 10.0.1 (linux64) logging started Sun Nov 26 15:44:36 2023

Set parameter LogFile to value "ArtificialInstance/ExperimentV2/S2T5K2/AdRo/gurobiSpRo33.txt"
Gurobi Optimizer version 10.0.1 build v10.0.1rc0 (linux64)

CPU model: AMD EPYC 7H12 64-Core Processor, instruction set [SSE2|AVX|AVX2]
Thread count: 128 physical cores, 128 logical processors, using up to 32 threads

Academic license 656792 - for non-commercial use only - registered to b.___@student.vu.nl
Optimize a model with 8474 rows, 7930 columns and 30761 nonzeros
Model fingerprint: 0x8e5efaa0
Variable types: 1 continuous, 7929 integer (7929 binary)
Coefficient statistics:
  Matrix range     [1e+00, 4e+01]
  Objective range  [1e+00, 2e+01]
  Bounds range     [1e+00, 1e+00]
  RHS range        [1e+00, 1e+00]
Presolve removed 4116 rows and 3813 columns
Presolve time: 0.10s
Presolved: 4358 rows, 4117 columns, 16162 nonzeros
Variable types: 1 continuous, 4116 integer (4116 binary)

Root relaxation: objective 8.031429e+01, 1348 iterations, 0.04 seconds (0.03 work units)

    Nodes    |    Current Node    |     Objective Bounds      |     Work
 Expl Unexpl |  Obj  Depth IntInf | Incumbent    BestBd   Gap | It/Node Time

     0     0   80.31429    0    4          -   80.31429      -     -    0s
H    0     0                      81.7647974   80.31429  1.77%     -    0s
H    0     0                      80.3142856   80.31429  0.00%     -    0s

Explored 1 nodes (1348 simplex iterations) in 0.20 seconds (0.14 work units)
Thread count was 32 (of 128 available processors)

Solution count 2: 80.3143 81.7648 

Optimal solution found (tolerance 1.00e-04)
Best objective 8.031428564807e+01, best bound 8.031428564807e+01, gap 0.0000%
